p cnf 138 684
1 -52 0
1 -53 0
52 -52 0
53 -53 0
18 -58 0
18 -59 0
58 -58 0
59 -59 0
35 -64 0
35 -65 0
64 -64 0
65 -65 0
2 -52 0
2 -53 0
52 -52 0
53 -53 0
19 -58 0
19 -59 0
58 -58 0
59 -59 0
36 -64 0
36 -65 0
64 -64 0
65 -65 0
3 -52 0
3 -53 0
52 -52 0
53 -53 0
20 -58 0
20 -59 0
58 -58 0
59 -59 0
37 -64 0
37 -65 0
64 -64 0
65 -65 0
4 -52 0
4 -53 0
52 -52 0
53 -53 0
21 -58 0
21 -59 0
58 -58 0
59 -59 0
38 -64 0
38 -65 0
64 -64 0
65 -65 0
5 -52 0
5 -53 0
52 -52 0
53 -53 0
22 -58 0
22 -59 0
58 -58 0
59 -59 0
39 -64 0
39 -65 0
64 -64 0
65 -65 0
6 -70 -52 0
-6 70 -52 0
6 70 -53 0
-6 -70 -53 0
23 -70 -58 0
-23 70 -58 0
23 70 -59 0
-23 -70 -59 0
40 -70 -64 0
-40 70 -64 0
40 70 -65 0
-40 -70 -65 0
7 -71 -52 0
-7 71 -52 0
7 71 -53 0
-7 -71 -53 0
24 -71 -58 0
-24 71 -58 0
24 71 -59 0
-24 -71 -59 0
41 -71 -64 0
-41 71 -64 0
41 71 -65 0
-41 -71 -65 0
8 -52 0
8 -53 0
52 -52 0
53 -53 0
25 -58 0
25 -59 0
58 -58 0
59 -59 0
42 -64 0
42 -65 0
64 -64 0
65 -65 0
9 -52 0
9 -53 0
52 -52 0
53 -53 0
26 -58 0
26 -59 0
58 -58 0
59 -59 0
43 -64 0
43 -65 0
64 -64 0
65 -65 0
10 -52 0
10 -53 0
52 -52 0
53 -53 0
27 -58 0
27 -59 0
58 -58 0
59 -59 0
44 -64 0
44 -65 0
64 -64 0
65 -65 0
11 -52 0
11 -53 0
52 -52 0
53 -53 0
28 -58 0
28 -59 0
58 -58 0
59 -59 0
45 -64 0
45 -65 0
64 -64 0
65 -65 0
12 -52 0
12 -53 0
52 -52 0
53 -53 0
29 -58 0
29 -59 0
58 -58 0
59 -59 0
46 -64 0
46 -65 0
64 -64 0
65 -65 0
-13 -52 0
-13 -53 0
52 -52 0
53 -53 0
-30 -58 0
-30 -59 0
58 -58 0
59 -59 0
-47 -64 0
-47 -65 0
64 -64 0
65 -65 0
14 -52 0
14 -53 0
52 -52 0
53 -53 0
31 -58 0
31 -59 0
58 -58 0
59 -59 0
48 -64 0
48 -65 0
64 -64 0
65 -65 0
15 -52 0
15 -53 0
52 -52 0
53 -53 0
32 -58 0
32 -59 0
58 -58 0
59 -59 0
49 -64 0
49 -65 0
64 -64 0
65 -65 0
-16 -52 0
-16 -53 0
52 -52 0
53 -53 0
-33 -58 0
-33 -59 0
58 -58 0
59 -59 0
-50 -64 0
-50 -65 0
64 -64 0
65 -65 0
-17 -52 0
-17 -53 0
52 -52 0
53 -53 0
-34 -58 0
-34 -59 0
58 -58 0
59 -59 0
-51 -64 0
-51 -65 0
64 -64 0
65 -65 0
-121 52 0
121 -52 0
-122 53 0
121 -53 0
-121 -52 0
-122 -53 0
-127 52 121 0
127 -52 0
127 -121 0
-128 53 122 0
128 -53 0
128 -122 0
-127 -58 0
-128 -59 0
-133 58 127 0
133 -58 0
133 -127 0
-134 59 128 0
134 -59 0
134 -128 0
-133 -64 0
-134 -65 0
133 0
134 0
1 -72 -54 0
-1 72 -54 0
1 72 -55 0
-1 -72 -55 0
18 -72 -60 0
-18 72 -60 0
18 72 -61 0
-18 -72 -61 0
35 -72 -66 0
-35 72 -66 0
35 72 -67 0
-35 -72 -67 0
2 -54 0
2 -55 0
54 -54 0
55 -55 0
19 -60 0
19 -61 0
60 -60 0
61 -61 0
36 -66 0
36 -67 0
66 -66 0
67 -67 0
3 -54 0
3 -55 0
54 -54 0
55 -55 0
20 -60 0
20 -61 0
60 -60 0
61 -61 0
37 -66 0
37 -67 0
66 -66 0
67 -67 0
4 -54 0
4 -55 0
54 -54 0
55 -55 0
21 -60 0
21 -61 0
60 -60 0
61 -61 0
38 -66 0
38 -67 0
66 -66 0
67 -67 0
5 -73 -54 0
-5 73 -54 0
5 73 -55 0
-5 -73 -55 0
22 -73 -60 0
-22 73 -60 0
22 73 -61 0
-22 -73 -61 0
39 -73 -66 0
-39 73 -66 0
39 73 -67 0
-39 -73 -67 0
6 -74 -54 0
-6 74 -54 0
6 74 -55 0
-6 -74 -55 0
23 -74 -60 0
-23 74 -60 0
23 74 -61 0
-23 -74 -61 0
40 -74 -66 0
-40 74 -66 0
40 74 -67 0
-40 -74 -67 0
7 -75 -54 0
-7 75 -54 0
7 75 -55 0
-7 -75 -55 0
24 -75 -60 0
-24 75 -60 0
24 75 -61 0
-24 -75 -61 0
41 -75 -66 0
-41 75 -66 0
41 75 -67 0
-41 -75 -67 0
8 -54 0
8 -55 0
54 -54 0
55 -55 0
25 -60 0
25 -61 0
60 -60 0
61 -61 0
42 -66 0
42 -67 0
66 -66 0
67 -67 0
9 -54 0
9 -55 0
54 -54 0
55 -55 0
26 -60 0
26 -61 0
60 -60 0
61 -61 0
43 -66 0
43 -67 0
66 -66 0
67 -67 0
10 -76 -54 0
-10 76 -54 0
10 76 -55 0
-10 -76 -55 0
27 -76 -60 0
-27 76 -60 0
27 76 -61 0
-27 -76 -61 0
44 -76 -66 0
-44 76 -66 0
44 76 -67 0
-44 -76 -67 0
11 -54 0
11 -55 0
54 -54 0
55 -55 0
28 -60 0
28 -61 0
60 -60 0
61 -61 0
45 -66 0
45 -67 0
66 -66 0
67 -67 0
12 -54 0
12 -55 0
54 -54 0
55 -55 0
29 -60 0
29 -61 0
60 -60 0
61 -61 0
46 -66 0
46 -67 0
66 -66 0
67 -67 0
13 -77 -54 0
-13 77 -54 0
13 77 -55 0
-13 -77 -55 0
30 -77 -60 0
-30 77 -60 0
30 77 -61 0
-30 -77 -61 0
47 -77 -66 0
-47 77 -66 0
47 77 -67 0
-47 -77 -67 0
14 -54 0
14 -55 0
54 -54 0
55 -55 0
31 -60 0
31 -61 0
60 -60 0
61 -61 0
48 -66 0
48 -67 0
66 -66 0
67 -67 0
15 -78 -54 0
-15 78 -54 0
15 78 -55 0
-15 -78 -55 0
32 -78 -60 0
-32 78 -60 0
32 78 -61 0
-32 -78 -61 0
49 -78 -66 0
-49 78 -66 0
49 78 -67 0
-49 -78 -67 0
16 -79 -54 0
-16 79 -54 0
16 79 -55 0
-16 -79 -55 0
33 -79 -60 0
-33 79 -60 0
33 79 -61 0
-33 -79 -61 0
50 -79 -66 0
-50 79 -66 0
50 79 -67 0
-50 -79 -67 0
17 -80 -54 0
-17 80 -54 0
17 80 -55 0
-17 -80 -55 0
34 -80 -60 0
-34 80 -60 0
34 80 -61 0
-34 -80 -61 0
51 -80 -66 0
-51 80 -66 0
51 80 -67 0
-51 -80 -67 0
-123 54 0
123 -54 0
-124 55 0
123 -55 0
-123 -54 0
-124 -55 0
-129 54 123 0
129 -54 0
129 -123 0
-130 55 124 0
130 -55 0
130 -124 0
-129 -60 0
-130 -61 0
-135 60 129 0
135 -60 0
135 -129 0
-136 61 130 0
136 -61 0
136 -130 0
-135 -66 0
-136 -67 0
135 0
136 0
-1 -56 0
-1 -57 0
56 -56 0
57 -57 0
-18 -62 0
-18 -63 0
62 -62 0
63 -63 0
-35 -68 0
-35 -69 0
68 -68 0
69 -69 0
2 -56 0
2 -57 0
56 -56 0
57 -57 0
19 -62 0
19 -63 0
62 -62 0
63 -63 0
36 -68 0
36 -69 0
68 -68 0
69 -69 0
3 -56 0
3 -57 0
56 -56 0
57 -57 0
20 -62 0
20 -63 0
62 -62 0
63 -63 0
37 -68 0
37 -69 0
68 -68 0
69 -69 0
4 -56 0
4 -57 0
56 -56 0
57 -57 0
21 -62 0
21 -63 0
62 -62 0
63 -63 0
38 -68 0
38 -69 0
68 -68 0
69 -69 0
5 -56 0
5 -57 0
56 -56 0
57 -57 0
22 -62 0
22 -63 0
62 -62 0
63 -63 0
39 -68 0
39 -69 0
68 -68 0
69 -69 0
6 -81 -56 0
-6 81 -56 0
6 81 -57 0
-6 -81 -57 0
23 -81 -62 0
-23 81 -62 0
23 81 -63 0
-23 -81 -63 0
40 -81 -68 0
-40 81 -68 0
40 81 -69 0
-40 -81 -69 0
7 -82 -56 0
-7 82 -56 0
7 82 -57 0
-7 -82 -57 0
24 -82 -62 0
-24 82 -62 0
24 82 -63 0
-24 -82 -63 0
41 -82 -68 0
-41 82 -68 0
41 82 -69 0
-41 -82 -69 0
8 -83 -56 0
-8 83 -56 0
8 83 -57 0
-8 -83 -57 0
25 -83 -62 0
-25 83 -62 0
25 83 -63 0
-25 -83 -63 0
42 -83 -68 0
-42 83 -68 0
42 83 -69 0
-42 -83 -69 0
9 -84 -56 0
-9 84 -56 0
9 84 -57 0
-9 -84 -57 0
26 -84 -62 0
-26 84 -62 0
26 84 -63 0
-26 -84 -63 0
43 -84 -68 0
-43 84 -68 0
43 84 -69 0
-43 -84 -69 0
10 -85 -56 0
-10 85 -56 0
10 85 -57 0
-10 -85 -57 0
27 -85 -62 0
-27 85 -62 0
27 85 -63 0
-27 -85 -63 0
44 -85 -68 0
-44 85 -68 0
44 85 -69 0
-44 -85 -69 0
11 -86 -56 0
-11 86 -56 0
11 86 -57 0
-11 -86 -57 0
28 -86 -62 0
-28 86 -62 0
28 86 -63 0
-28 -86 -63 0
45 -86 -68 0
-45 86 -68 0
45 86 -69 0
-45 -86 -69 0
12 -87 -56 0
-12 87 -56 0
12 87 -57 0
-12 -87 -57 0
29 -87 -62 0
-29 87 -62 0
29 87 -63 0
-29 -87 -63 0
46 -87 -68 0
-46 87 -68 0
46 87 -69 0
-46 -87 -69 0
13 -56 0
13 -57 0
56 -56 0
57 -57 0
30 -62 0
30 -63 0
62 -62 0
63 -63 0
47 -68 0
47 -69 0
68 -68 0
69 -69 0
14 -88 -56 0
-14 88 -56 0
14 88 -57 0
-14 -88 -57 0
31 -88 -62 0
-31 88 -62 0
31 88 -63 0
-31 -88 -63 0
48 -88 -68 0
-48 88 -68 0
48 88 -69 0
-48 -88 -69 0
15 -89 -56 0
-15 89 -56 0
15 89 -57 0
-15 -89 -57 0
32 -89 -62 0
-32 89 -62 0
32 89 -63 0
-32 -89 -63 0
49 -89 -68 0
-49 89 -68 0
49 89 -69 0
-49 -89 -69 0
16 -56 0
16 -57 0
56 -56 0
57 -57 0
33 -62 0
33 -63 0
62 -62 0
63 -63 0
50 -68 0
50 -69 0
68 -68 0
69 -69 0
17 -56 0
17 -57 0
56 -56 0
57 -57 0
34 -62 0
34 -63 0
62 -62 0
63 -63 0
51 -68 0
51 -69 0
68 -68 0
69 -69 0
-125 56 0
125 -56 0
-126 57 0
125 -57 0
-125 -56 0
-126 -57 0
-131 56 125 0
131 -56 0
131 -125 0
-132 57 126 0
132 -57 0
132 -126 0
-131 -62 0
-132 -63 0
-137 62 131 0
137 -62 0
137 -131 0
-138 63 132 0
138 -63 0
138 -132 0
-137 -68 0
-138 -69 0
137 0
138 0
